21458 : 13804 9870 
10844 : 1964 7165 
88 : 10308 16186 
10308 : 17264 88 
17264 : 10308 13120 21504 
14539 : 109 2074 
5636 : 15649 19423 
16186 : 14166 18842 88 
1367 : 1964 13120 
18842 : 16186 3390 19205 
9870 : 19423 21458 
1964 : 10844 1367 
109 : 14539 14166 
19423 : 5636 9870 
13120 : 1367 17264 
3390 : 18842 15649 
15649 : 3390 5636 
14166 : 109 16186 
21246 : 7165 
7165 : 21246 10844 
19205 : 18842 
2074 : 14539 
21504 : 9536 17264 
9536 : 21504 
13804 : 21458 
19205 2074 21246 9536 13804 
